4 10 100 1 2
0 200
 1 40.00 50.00 0.00 0.00 0.00 0 0 0 1236
 2 45.00 68.00 90.00 10.00 20.00 1 1 1 0 1127
 3 45.00 70.00 90.00 30.00 10.00 1 1 1 0 1125
 4 42.00 66.00 90.00 10.00 10.00 1 1 1 0 1129
 5 42.00 68.00 90.00 10.00 10.00 1 1 1 727 782
 6 42.00 65.00 90.00 10.00 20.00 1 1 1 0 1130
 7 40.00 69.00 90.00 20.00 30.00 1 1 1 621 702
 8 40.00 66.00 90.00 20.00 20.00 1 1 1 0 1130
 9 38.00 68.00 90.00 20.00 10.00 1 1 1 255 324
 10 38.00 70.00 90.00 10.00 30.00 1 1 1 534 605
 11 35.00 66.00 90.00 10.00 10.00 1 1 1 357 410
 12 35.00 69.00 90.00 10.00 20.00 1 1 1 448 505
 13 25.00 85.00 90.00 20.00 10.00 1 1 1 0 1107
 14 22.00 75.00 90.00 30.00 20.00 1 1 1 30 92
 15 22.00 85.00 90.00 10.00 10.00 1 1 1 0 1106
 16 20.00 80.00 90.00 40.00 10.00 1 1 1 384 429
 17 20.00 85.00 90.00 40.00 20.00 1 1 1 0 1105
 18 18.00 75.00 90.00 20.00 20.00 1 1 1 99 148
 19 15.00 75.00 90.00 20.00 10.00 1 1 1 0 1110
 20 15.00 80.00 90.00 10.00 10.00 1 1 1 0 1106
 21 30.00 50.00 90.00 10.00 10.00 1 1 1 0 1136
 22 30.00 52.00 90.00 20.00 20.00 1 1 1 0 1135
 23 28.00 52.00 90.00 20.00 30.00 1 1 1 812 883
 24 28.00 55.00 90.00 10.00 10.00 1 1 1 732 777
 25 25.00 50.00 90.00 10.00 40.00 1 1 1 0 1131
 26 25.00 52.00 90.00 40.00 10.00 1 1 1 169 224
 27 25.00 55.00 90.00 10.00 10.00 1 1 1 0 1130
 28 23.00 52.00 90.00 10.00 10.00 1 1 1 261 316
 29 23.00 55.00 90.00 20.00 20.00 1 1 1 0 1128
 30 20.00 50.00 90.00 10.00 10.00 1 1 1 0 1126
 31 20.00 55.00 90.00 10.00 30.00 1 1 1 449 504
 32 10.00 35.00 90.00 20.00 10.00 1 1 1 0 1112
 33 10.00 40.00 90.00 30.00 30.00 1 1 1 0 1114
 34 8.00 40.00 90.00 40.00 10.00 1 1 1 87 158
 35 8.00 45.00 90.00 20.00 10.00 1 1 1 0 1113
 36 5.00 35.00 90.00 10.00 10.00 1 1 1 283 344
 37 5.00 45.00 90.00 10.00 10.00 1 1 1 665 716
 38 2.00 40.00 90.00 20.00 10.00 1 1 1 0 1106
 39 0.00 40.00 90.00 30.00 20.00 1 1 1 479 522
 40 0.00 45.00 90.00 20.00 10.00 1 1 1 567 624
 41 35.00 30.00 90.00 10.00 40.00 1 1 1 264 321
 42 35.00 32.00 90.00 10.00 10.00 1 1 1 166 235
 43 33.00 32.00 90.00 20.00 40.00 1 1 1 68 149
 44 33.00 35.00 90.00 10.00 10.00 1 1 1 0 1129
 45 32.00 30.00 90.00 10.00 30.00 1 1 1 359 412
 46 30.00 30.00 90.00 10.00 30.00 1 1 1 541 600
 47 30.00 32.00 90.00 30.00 30.00 1 1 1 0 1125
 48 30.00 35.00 90.00 10.00 10.00 1 1 1 0 1127
 49 28.00 30.00 90.00 10.00 20.00 1 1 1 0 1122
 50 28.00 35.00 90.00 10.00 10.00 1 1 1 1001 1066
 51 26.00 32.00 90.00 10.00 10.00 1 1 1 0 1123
 52 25.00 30.00 90.00 10.00 10.00 1 1 1 0 1121
 53 25.00 35.00 90.00 10.00 10.00 1 1 1 0 1124
 54 44.00 5.00 90.00 20.00 40.00 1 1 1 286 347
 55 42.00 10.00 90.00 40.00 10.00 1 1 1 0 1105
 56 42.00 15.00 90.00 10.00 10.00 1 1 1 95 158
 57 40.00 5.00 90.00 30.00 10.00 1 1 1 385 436
 58 40.00 15.00 90.00 40.00 10.00 1 1 1 0 1111
 59 38.00 5.00 90.00 30.00 30.00 1 1 1 471 534
 60 38.00 15.00 90.00 10.00 10.00 1 1 1 0 1110
 61 35.00 5.00 90.00 20.00 40.00 1 1 1 0 1100
 62 50.00 30.00 90.00 10.00 10.00 1 1 1 0 1123
 63 50.00 35.00 90.00 20.00 30.00 1 1 1 262 317
 64 50.00 40.00 90.00 50.00 10.00 1 1 1 0 1131
 65 48.00 30.00 90.00 10.00 10.00 1 1 1 632 693
 66 48.00 40.00 90.00 10.00 40.00 1 1 1 76 129
 67 47.00 35.00 90.00 10.00 20.00 1 1 1 826 875
 68 47.00 40.00 90.00 10.00 10.00 1 1 1 12 77
 69 45.00 30.00 90.00 10.00 10.00 1 1 1 734 777
 70 45.00 35.00 90.00 10.00 20.00 1 1 1 916 969
 71 95.00 30.00 90.00 30.00 20.00 1 1 1 387 456
 72 95.00 35.00 90.00 20.00 10.00 1 1 1 0 1088
 73 53.00 30.00 90.00 10.00 10.00 1 1 1 0 1122
 74 92.00 30.00 90.00 10.00 20.00 1 1 1 0 1090
 75 53.00 35.00 90.00 50.00 20.00 1 1 1 353 412
 76 45.00 65.00 90.00 20.00 10.00 1 1 1 0 1130
 77 90.00 35.00 90.00 10.00 10.00 1 1 1 203 260
 78 88.00 30.00 90.00 10.00 30.00 1 1 1 574 643
 79 88.00 35.00 90.00 20.00 20.00 1 1 1 109 170
 80 87.00 30.00 90.00 10.00 20.00 1 1 1 668 731
 81 85.00 25.00 90.00 10.00 40.00 1 1 1 769 820
 82 85.00 35.00 90.00 30.00 20.00 1 1 1 0 1098
 83 75.00 55.00 90.00 20.00 10.00 1 1 1 0 1110
 84 72.00 55.00 90.00 10.00 30.00 1 1 1 0 1113
 85 70.00 58.00 90.00 20.00 10.00 1 1 1 458 523
 86 68.00 60.00 90.00 30.00 20.00 1 1 1 0 1116
 87 66.00 55.00 90.00 10.00 20.00 1 1 1 0 1119
 88 65.00 55.00 90.00 20.00 10.00 1 1 1 85 144
 89 65.00 60.00 90.00 30.00 10.00 1 1 1 645 708
 90 63.00 58.00 90.00 10.00 20.00 1 1 1 0 1121
 91 60.00 55.00 90.00 10.00 20.00 1 1 1 0 1125
 92 60.00 60.00 90.00 10.00 10.00 1 1 1 0 1123
 93 67.00 85.00 90.00 20.00 50.00 1 1 1 368 441
 94 65.00 85.00 90.00 40.00 20.00 1 1 1 475 518
 95 65.00 82.00 90.00 10.00 10.00 1 1 1 0 1105
 96 62.00 80.00 90.00 30.00 30.00 1 1 1 0 1108
 97 60.00 80.00 90.00 10.00 20.00 1 1 1 0 1109
 98 60.00 85.00 90.00 30.00 20.00 1 1 1 0 1105
 99 58.00 75.00 90.00 20.00 10.00 1 1 1 0 1115
 100 55.00 80.00 90.00 10.00 10.00 1 1 1 743 820
 101 55.00 85.00 90.00 20.00 50.00 1 1 1 647 726
